decision_x1=[0,7];
decision_x2=[0,7];
decision_x3=[0,7];
decision_x4=[0,7];
decision_x5=[0,7];
decision_x6=[0,7];
decision_x7=[0,7];
decision_x8=[0,7];
decision_x9=[0,7];
decision_x10=[0,7];
decision_x11=[0,7];
decision_x12=[0,7];
decision_x13=[0,7];
decision_x14=[0,7];
decision_x15=[0,7];
decision_x16=[0,7];
decision_x17=[0,7];
decision_x18=[0,7];
random_y1=[0,7];
random_y2=[0,7];
random_y3=[0,7];
random_y4=[0,7];
random_y5=[0,7];
random_y6=[0,7];
random_y7=[0,7];
random_y8=[0,7];
constraint_x2_x1=[
0,0,3.8|
0,1,4.7|
0,2,8.4|
0,3,0.81|
0,4,1.2|
0,5,1|
0,6,1.6|
0,7,3.3|
1,0,0.32|
1,1,7.9|
1,2,4.9|
1,3,3.3|
1,4,1.6|
1,5,5.4|
1,6,7.2|
1,7,1.2|
2,0,7.5|
2,1,7|
2,2,5.2|
2,3,9.8|
2,4,9.5|
2,5,9.5|
2,6,0.88|
2,7,9.7|
3,0,9.7|
3,1,4.3|
3,2,4.6|
3,3,6.9|
3,4,2.7|
3,5,4.7|
3,6,5.4|
3,7,2|
4,0,1|
4,1,7.6|
4,2,1.4|
4,3,8.8|
4,4,3.1|
4,5,1.6|
4,6,6.1|
4,7,7.6|
5,0,3.5|
5,1,1.4|
5,2,1.7|
5,3,3.8|
5,4,1.4|
5,5,1.9|
5,6,2.4|
5,7,2.7|
6,0,3.7|
6,1,4.3|
6,2,5.1|
6,3,0.92|
6,4,0.09|
6,5,8.9|
6,6,6.6|
6,7,4.5|
7,0,8.3|
7,1,6.5|
7,2,8.4|
7,3,1.6|
7,4,0.71|
7,5,1.4|
7,6,1.4|
7,7,0.54|
];
constraint_x3_x2=[
0,0,4.8|
0,1,0.13|
0,2,0.16|
0,3,0.19|
0,4,0.5|
0,5,4|
0,6,9.9|
0,7,0.57|
1,0,9.4|
1,1,9.7|
1,2,8.9|
1,3,2.4|
1,4,0.18|
1,5,4.7|
1,6,2.9|
1,7,9.2|
2,0,5.9|
2,1,6|
2,2,9|
2,3,4.5|
2,4,7.4|
2,5,8.1|
2,6,0.48|
2,7,6.6|
3,0,4.4|
3,1,0.28|
3,2,8.7|
3,3,9.2|
3,4,2.4|
3,5,6.2|
3,6,8.8|
3,7,1.2|
4,0,6.7|
4,1,2.8|
4,2,5.7|
4,3,5.1|
4,4,0.49|
4,5,2.9|
4,6,9.2|
4,7,7|
5,0,3.3|
5,1,1.3|
5,2,9.6|
5,3,2.8|
5,4,7.4|
5,5,6.3|
5,6,4.7|
5,7,3.5|
6,0,0.45|
6,1,5.1|
6,2,9.5|
6,3,9|
6,4,4.4|
6,5,9.9|
6,6,6.6|
6,7,1.7|
7,0,0.81|
7,1,5.1|
7,2,5.9|
7,3,3.6|
7,4,8.9|
7,5,8.5|
7,6,5.1|
7,7,1.1|
];
constraint_x4_x3=[
0,0,6.8|
0,1,6.9|
0,2,3.3|
0,3,0.28|
0,4,9.6|
0,5,2.4|
0,6,5.3|
0,7,7.6|
1,0,5.4|
1,1,3.3|
1,2,5.8|
1,3,2.5|
1,4,2.2|
1,5,4.4|
1,6,1.1|
1,7,1.5|
2,0,6|
2,1,2.7|
2,2,2.8|
2,3,2.2|
2,4,0.88|
2,5,8.2|
2,6,1.1|
2,7,2.4|
3,0,6.8|
3,1,6.3|
3,2,8.5|
3,3,6.9|
3,4,8.1|
3,5,6.5|
3,6,5.6|
3,7,1.9|
4,0,8.1|
4,1,4.8|
4,2,7.8|
4,3,4.3|
4,4,0.17|
4,5,4.6|
4,6,9|
4,7,3.1|
5,0,6.9|
5,1,5.2|
5,2,8.9|
5,3,5.1|
5,4,8.9|
5,5,10|
5,6,0.7|
5,7,5|
6,0,4.1|
6,1,4.6|
6,2,8.9|
6,3,4.5|
6,4,7.9|
6,5,5.8|
6,6,6.6|
6,7,9.2|
7,0,3.7|
7,1,8.4|
7,2,7.1|
7,3,2.5|
7,4,4.7|
7,5,9.3|
7,6,9|
7,7,1.3|
];
constraint_x5_x1=[
0,0,5.6|
0,1,0.38|
0,2,0.36|
0,3,5.9|
0,4,5.9|
0,5,2.3|
0,6,3.7|
0,7,7.4|
1,0,5.9|
1,1,0.59|
1,2,4.5|
1,3,3|
1,4,8|
1,5,0.78|
1,6,9.1|
1,7,5.1|
2,0,4.3|
2,1,2.5|
2,2,8.5|
2,3,9.9|
2,4,4.7|
2,5,2.1|
2,6,5.3|
2,7,1.2|
3,0,6|
3,1,0.21|
3,2,7.8|
3,3,8.9|
3,4,8.1|
3,5,2.7|
3,6,7.4|
3,7,9.9|
4,0,4.9|
4,1,3.1|
4,2,3.7|
4,3,8.8|
4,4,3.8|
4,5,6.2|
4,6,5.5|
4,7,8.8|
5,0,4.1|
5,1,8.4|
5,2,1.6|
5,3,0.8|
5,4,1.6|
5,5,8.8|
5,6,9.2|
5,7,5.2|
6,0,6.3|
6,1,4.1|
6,2,2.6|
6,3,7.5|
6,4,1.9|
6,5,9|
6,6,4.9|
6,7,8.2|
7,0,6.2|
7,1,4|
7,2,5.9|
7,3,7.9|
7,4,2.1|
7,5,9|
7,6,9.8|
7,7,9.4|
];
constraint_x6_x2=[
0,0,2.1|
0,1,9.8|
0,2,1.2|
0,3,9.8|
0,4,9.7|
0,5,3.9|
0,6,9.3|
0,7,6.3|
1,0,2.9|
1,1,5.5|
1,2,7.9|
1,3,9.6|
1,4,6.1|
1,5,2|
1,6,5.2|
1,7,7.7|
2,0,4.4|
2,1,4.7|
2,2,0.26|
2,3,9.1|
2,4,5.9|
2,5,2.1|
2,6,5.9|
2,7,1.9|
3,0,7.8|
3,1,0.96|
3,2,8.3|
3,3,1.4|
3,4,1.8|
3,5,6.8|
3,6,4.5|
3,7,3.6|
4,0,8.9|
4,1,3.4|
4,2,2.8|
4,3,6.7|
4,4,8.2|
4,5,2.7|
4,6,2|
4,7,9.9|
5,0,0.76|
5,1,6.4|
5,2,9.1|
5,3,0.61|
5,4,7.2|
5,5,2.7|
5,6,6.8|
5,7,4.4|
6,0,4.7|
6,1,7.3|
6,2,5|
6,3,7.9|
6,4,1.6|
6,5,4.2|
6,6,6.9|
6,7,3.9|
7,0,4.7|
7,1,7.8|
7,2,4.1|
7,3,6.6|
7,4,9.6|
7,5,8.7|
7,6,6.8|
7,7,8.9|
];
constraint_x6_x5=[
0,0,7.9|
0,1,5.4|
0,2,9.4|
0,3,7.8|
0,4,4|
0,5,5.1|
0,6,2.3|
0,7,5.7|
1,0,4.9|
1,1,8|
1,2,5.9|
1,3,6.8|
1,4,3.1|
1,5,3.7|
1,6,2.9|
1,7,3.8|
2,0,1.8|
2,1,0.22|
2,2,9.5|
2,3,8.5|
2,4,5.1|
2,5,6.4|
2,6,7.5|
2,7,0.82|
3,0,5.6|
3,1,4.1|
3,2,0.35|
3,3,5.5|
3,4,6.7|
3,5,5.2|
3,6,3.3|
3,7,4.3|
4,0,7.8|
4,1,9.8|
4,2,8.3|
4,3,3.1|
4,4,3.8|
4,5,2.1|
4,6,7.2|
4,7,4.7|
5,0,3.6|
5,1,3.1|
5,2,6.8|
5,3,2.4|
5,4,9.7|
5,5,0.094|
5,6,8.4|
5,7,1.8|
6,0,8.5|
6,1,3.3|
6,2,5|
6,3,7.2|
6,4,3.8|
6,5,6.6|
6,6,8.3|
6,7,0.94|
7,0,2.7|
7,1,3.6|
7,2,5.1|
7,3,1|
7,4,1.6|
7,5,2.2|
7,6,5.2|
7,7,4.8|
];
constraint_x7_x3=[
0,0,5.7|
0,1,1.9|
0,2,9|
0,3,3.9|
0,4,4.8|
0,5,5.1|
0,6,0.86|
0,7,2.9|
1,0,6.4|
1,1,4.2|
1,2,4.2|
1,3,8.8|
1,4,6.8|
1,5,8.4|
1,6,2.7|
1,7,7.9|
2,0,4|
2,1,8.7|
2,2,8.7|
2,3,9.1|
2,4,0.019|
2,5,2.3|
2,6,7.4|
2,7,3.6|
3,0,0.43|
3,1,2.5|
3,2,9.4|
3,3,8.7|
3,4,8.5|
3,5,4.8|
3,6,7.4|
3,7,4.7|
4,0,7.7|
4,1,6|
4,2,6.1|
4,3,4.5|
4,4,4.7|
4,5,3.4|
4,6,5.7|
4,7,8.2|
5,0,9.5|
5,1,5.5|
5,2,6.5|
5,3,9.5|
5,4,9.2|
5,5,6.6|
5,6,5|
5,7,4.9|
6,0,3|
6,1,3.7|
6,2,0.98|
6,3,0.31|
6,4,8.1|
6,5,5.2|
6,6,3.5|
6,7,0.79|
7,0,4.1|
7,1,3.3|
7,2,3.1|
7,3,9.7|
7,4,7|
7,5,2|
7,6,9.5|
7,7,4.1|
];
constraint_x7_x6=[
0,0,4|
0,1,1.9|
0,2,5.4|
0,3,2.9|
0,4,6.7|
0,5,0.92|
0,6,8.3|
0,7,2.9|
1,0,5|
1,1,6.1|
1,2,6.8|
1,3,1.1|
1,4,0.11|
1,5,1.6|
1,6,5.5|
1,7,6.5|
2,0,6.1|
2,1,8|
2,2,9.7|
2,3,9.7|
2,4,8.8|
2,5,6.9|
2,6,0.1|
2,7,3.1|
3,0,9|
3,1,3.8|
3,2,5.4|
3,3,9|
3,4,9.1|
3,5,2.9|
3,6,1.4|
3,7,7.2|
4,0,7.5|
4,1,9.3|
4,2,7.2|
4,3,9.3|
4,4,6.2|
4,5,5.9|
4,6,0.41|
4,7,3.3|
5,0,4.6|
5,1,0.82|
5,2,1.8|
5,3,3.5|
5,4,1.5|
5,5,9.7|
5,6,4.8|
5,7,2|
6,0,7.5|
6,1,3.5|
6,2,0.61|
6,3,3.5|
6,4,7.8|
6,5,7.4|
6,6,9.5|
6,7,6.8|
7,0,2.3|
7,1,9|
7,2,9.9|
7,3,8.9|
7,4,8.7|
7,5,8.3|
7,6,6.4|
7,7,5.7|
];
constraint_x8_x4=[
0,0,3.5|
0,1,7.3|
0,2,9.4|
0,3,6.4|
0,4,2.1|
0,5,5.7|
0,6,3.7|
0,7,8.9|
1,0,1.8|
1,1,0.005|
1,2,9.4|
1,3,2.3|
1,4,9.9|
1,5,7.3|
1,6,8.1|
1,7,0.12|
2,0,1.1|
2,1,8.4|
2,2,0.39|
2,3,5.2|
2,4,2.1|
2,5,1.8|
2,6,8.9|
2,7,7.8|
3,0,2.2|
3,1,0.55|
3,2,6.3|
3,3,0.47|
3,4,9.3|
3,5,4.7|
3,6,0.79|
3,7,5|
4,0,9.1|
4,1,4.5|
4,2,0.4|
4,3,5.4|
4,4,1.9|
4,5,5.9|
4,6,7.6|
4,7,8.6|
5,0,7.7|
5,1,7.9|
5,2,4.1|
5,3,6.1|
5,4,3.3|
5,5,4.7|
5,6,8.7|
5,7,3.4|
6,0,1.7|
6,1,0.018|
6,2,4.5|
6,3,5.2|
6,4,5.8|
6,5,0.02|
6,6,7.5|
6,7,4.4|
7,0,6.5|
7,1,8.2|
7,2,8.6|
7,3,6.7|
7,4,9.8|
7,5,1.2|
7,6,4.9|
7,7,8.8|
];
constraint_x8_x7=[
0,0,0.51|
0,1,6.9|
0,2,0.42|
0,3,3.2|
0,4,5.4|
0,5,4.2|
0,6,8.5|
0,7,0.86|
1,0,9.4|
1,1,1.6|
1,2,6.7|
1,3,3.8|
1,4,9.3|
1,5,6.3|
1,6,6.5|
1,7,8.7|
2,0,3.7|
2,1,3.6|
2,2,3.2|
2,3,0.046|
2,4,5.5|
2,5,2.3|
2,6,0.22|
2,7,5.5|
3,0,2.7|
3,1,7|
3,2,1.1|
3,3,9.5|
3,4,8.6|
3,5,0.5|
3,6,9.6|
3,7,1.3|
4,0,9.7|
4,1,2.4|
4,2,1.3|
4,3,0.56|
4,4,0.54|
4,5,8.4|
4,6,6|
4,7,1.4|
5,0,6.6|
5,1,2.3|
5,2,8.3|
5,3,4|
5,4,5.8|
5,5,4|
5,6,6.7|
5,7,8.1|
6,0,2.3|
6,1,2.5|
6,2,4.4|
6,3,2.7|
6,4,2.7|
6,5,9.1|
6,6,3.2|
6,7,2.6|
7,0,4.2|
7,1,1.6|
7,2,5.2|
7,3,4.5|
7,4,0.29|
7,5,2.9|
7,6,8|
7,7,0.63|
];
constraint_x9_x5=[
0,0,7|
0,1,9.5|
0,2,2.6|
0,3,3.9|
0,4,5.3|
0,5,3.1|
0,6,9.1|
0,7,5.4|
1,0,2.1|
1,1,3.9|
1,2,8.2|
1,3,5.6|
1,4,1.5|
1,5,9.3|
1,6,1.9|
1,7,5.5|
2,0,1.7|
2,1,5.6|
2,2,1.6|
2,3,5.3|
2,4,0.23|
2,5,9.5|
2,6,9.3|
2,7,5.8|
3,0,7|
3,1,4.8|
3,2,4.9|
3,3,7.8|
3,4,1.2|
3,5,9.9|
3,6,9.7|
3,7,1.6|
4,0,9.3|
4,1,5.1|
4,2,1.6|
4,3,4.2|
4,4,8.7|
4,5,5.7|
4,6,2.7|
4,7,3.1|
5,0,4.7|
5,1,3.8|
5,2,3.7|
5,3,9.2|
5,4,5.2|
5,5,7.5|
5,6,2.7|
5,7,0.23|
6,0,7.4|
6,1,6.3|
6,2,3.4|
6,3,1.1|
6,4,8.6|
6,5,9.4|
6,6,9|
6,7,4.2|
7,0,0.065|
7,1,3.5|
7,2,7.3|
7,3,4|
7,4,4.3|
7,5,7.8|
7,6,9.7|
7,7,1|
];
constraint_x10_x6=[
0,0,9.9|
0,1,0.66|
0,2,2.4|
0,3,2|
0,4,3.4|
0,5,9.8|
0,6,0.79|
0,7,6.2|
1,0,6.2|
1,1,1.2|
1,2,7.7|
1,3,8.3|
1,4,2.4|
1,5,0.54|
1,6,1.3|
1,7,1.1|
2,0,1.2|
2,1,1.2|
2,2,9|
2,3,0.33|
2,4,8.6|
2,5,4.8|
2,6,8.9|
2,7,9.1|
3,0,1.8|
3,1,8.9|
3,2,4.8|
3,3,7.3|
3,4,9.7|
3,5,9.2|
3,6,1.6|
3,7,1.3|
4,0,1.9|
4,1,2.4|
4,2,2|
4,3,8.9|
4,4,0.77|
4,5,2.6|
4,6,6.1|
4,7,9.2|
5,0,2.9|
5,1,9.6|
5,2,6.9|
5,3,1.4|
5,4,5.4|
5,5,5.8|
5,6,0.93|
5,7,1.5|
6,0,8.1|
6,1,8.3|
6,2,3.8|
6,3,1.4|
6,4,1.1|
6,5,7.9|
6,6,9.2|
6,7,3.5|
7,0,5.9|
7,1,2.1|
7,2,6|
7,3,8.9|
7,4,3|
7,5,1.1|
7,6,3.2|
7,7,6.3|
];
constraint_x10_x9=[
0,0,4.1|
0,1,5.7|
0,2,5.5|
0,3,4|
0,4,6|
0,5,9.7|
0,6,8.9|
0,7,0.21|
1,0,0.021|
1,1,8.8|
1,2,8|
1,3,9.2|
1,4,4.7|
1,5,0.22|
1,6,2.3|
1,7,1.4|
2,0,2.8|
2,1,7.2|
2,2,5.3|
2,3,6.6|
2,4,5.2|
2,5,6.3|
2,6,6.2|
2,7,3|
3,0,0.89|
3,1,8|
3,2,6.2|
3,3,1.5|
3,4,1.5|
3,5,6.9|
3,6,2.4|
3,7,9.2|
4,0,9.6|
4,1,4.6|
4,2,5.9|
4,3,1|
4,4,6.2|
4,5,0.19|
4,6,7.3|
4,7,2.7|
5,0,5.2|
5,1,6.9|
5,2,7.5|
5,3,5.5|
5,4,4.7|
5,5,7.7|
5,6,6.5|
5,7,5.9|
6,0,4|
6,1,0.82|
6,2,4.5|
6,3,4.4|
6,4,0.61|
6,5,7.4|
6,6,8|
6,7,0.037|
7,0,5.6|
7,1,5.9|
7,2,4.7|
7,3,3.4|
7,4,8.6|
7,5,2.7|
7,6,8.4|
7,7,9.2|
];
constraint_x11_x7=[
0,0,2.3|
0,1,4.9|
0,2,7.8|
0,3,8.3|
0,4,7.2|
0,5,2.7|
0,6,1.2|
0,7,5.4|
1,0,2.1|
1,1,9.6|
1,2,7.3|
1,3,2.2|
1,4,1.1|
1,5,9.1|
1,6,6.2|
1,7,0.78|
2,0,3.7|
2,1,9.3|
2,2,9.6|
2,3,6.8|
2,4,2.1|
2,5,8.1|
2,6,8.6|
2,7,4|
3,0,9.8|
3,1,7.2|
3,2,0.3|
3,3,9.9|
3,4,3|
3,5,4|
3,6,2.4|
3,7,5.6|
4,0,4.9|
4,1,8.2|
4,2,0.64|
4,3,9.4|
4,4,4.1|
4,5,8.8|
4,6,5.6|
4,7,3.9|
5,0,7.2|
5,1,4.4|
5,2,8.4|
5,3,3.9|
5,4,3.2|
5,5,0.021|
5,6,0.37|
5,7,4.7|
6,0,10|
6,1,1.1|
6,2,8.3|
6,3,8.8|
6,4,4.7|
6,5,3|
6,6,0.47|
6,7,4.3|
7,0,9.6|
7,1,3.5|
7,2,1|
7,3,3.1|
7,4,1.6|
7,5,5.2|
7,6,5.7|
7,7,1|
];
constraint_x11_x10=[
0,0,0.61|
0,1,5.6|
0,2,8.1|
0,3,9|
0,4,2.9|
0,5,0.68|
0,6,4.1|
0,7,1.1|
1,0,4.4|
1,1,2.8|
1,2,2|
1,3,4.7|
1,4,4.7|
1,5,9.2|
1,6,8.6|
1,7,4.7|
2,0,1.7|
2,1,3.7|
2,2,3.6|
2,3,4.4|
2,4,3.3|
2,5,3.3|
2,6,1.3|
2,7,3.6|
3,0,4.2|
3,1,4|
3,2,0.81|
3,3,0.66|
3,4,7.5|
3,5,0.87|
3,6,2.2|
3,7,0.96|
4,0,1.7|
4,1,0.66|
4,2,2.4|
4,3,5|
4,4,6.5|
4,5,5.4|
4,6,1.9|
4,7,2|
5,0,0.26|
5,1,9.3|
5,2,5.7|
5,3,6.6|
5,4,6.3|
5,5,9.2|
5,6,4.3|
5,7,1.7|
6,0,2.7|
6,1,4.1|
6,2,4.5|
6,3,9.2|
6,4,6|
6,5,4.2|
6,6,1.1|
6,7,3.6|
7,0,8.4|
7,1,8|
7,2,4.9|
7,3,9.8|
7,4,5.2|
7,5,9.1|
7,6,9.5|
7,7,7.1|
];
constraint_x12_x8=[
0,0,7.2|
0,1,4.3|
0,2,3.2|
0,3,8.1|
0,4,1.7|
0,5,8|
0,6,9.5|
0,7,5.2|
1,0,6.7|
1,1,3.6|
1,2,0.1|
1,3,4.8|
1,4,6.9|
1,5,9|
1,6,4.1|
1,7,8.3|
2,0,8|
2,1,2.9|
2,2,9|
2,3,4.1|
2,4,0.62|
2,5,1.9|
2,6,8.7|
2,7,7.9|
3,0,3.1|
3,1,6.8|
3,2,9|
3,3,2.4|
3,4,6.6|
3,5,8.3|
3,6,4.4|
3,7,4.2|
4,0,7.3|
4,1,6.4|
4,2,4|
4,3,0.53|
4,4,7.9|
4,5,6.9|
4,6,7.6|
4,7,3.2|
5,0,6.4|
5,1,2|
5,2,7.9|
5,3,4.6|
5,4,4.3|
5,5,5.3|
5,6,3.6|
5,7,2.1|
6,0,3.5|
6,1,1.2|
6,2,9.5|
6,3,3.1|
6,4,9|
6,5,5.9|
6,6,9.5|
6,7,5.2|
7,0,7.4|
7,1,7.4|
7,2,1.4|
7,3,8.1|
7,4,2.4|
7,5,3.1|
7,6,9.9|
7,7,5.4|
];
constraint_x12_x11=[
0,0,1.4|
0,1,7.2|
0,2,9|
0,3,9.6|
0,4,2.4|
0,5,8.1|
0,6,9.7|
0,7,2.4|
1,0,8.1|
1,1,3.6|
1,2,0.7|
1,3,2|
1,4,9.6|
1,5,2.9|
1,6,2.5|
1,7,0.64|
2,0,9.6|
2,1,3.7|
2,2,2|
2,3,4|
2,4,4.6|
2,5,1.2|
2,6,3.5|
2,7,7.8|
3,0,0.36|
3,1,4.4|
3,2,1.2|
3,3,7.5|
3,4,6.2|
3,5,0.7|
3,6,7.1|
3,7,9.7|
4,0,1.9|
4,1,6.5|
4,2,5.5|
4,3,8.3|
4,4,6.2|
4,5,0.69|
4,6,1.3|
4,7,8.7|
5,0,8.2|
5,1,5.1|
5,2,8.4|
5,3,0.43|
5,4,2.3|
5,5,5.1|
5,6,5.9|
5,7,1.7|
6,0,3.6|
6,1,8.3|
6,2,3.9|
6,3,5.1|
6,4,3.1|
6,5,1.5|
6,6,0.87|
6,7,7|
7,0,9.7|
7,1,9.1|
7,2,5.8|
7,3,0.32|
7,4,8.7|
7,5,0.44|
7,6,4.9|
7,7,1.9|
];
constraint_x13_x9=[
0,0,3.5|
0,1,8.2|
0,2,1.5|
0,3,6.3|
0,4,5.9|
0,5,3.7|
0,6,6.2|
0,7,1.2|
1,0,9.3|
1,1,5.2|
1,2,2.2|
1,3,1.3|
1,4,6.1|
1,5,9.1|
1,6,4.2|
1,7,2.8|
2,0,5.5|
2,1,0.022|
2,2,4.1|
2,3,5.7|
2,4,6.3|
2,5,7.2|
2,6,4.7|
2,7,6.7|
3,0,9.3|
3,1,7.1|
3,2,8.8|
3,3,8.8|
3,4,3|
3,5,5.6|
3,6,1.1|
3,7,5.2|
4,0,1.3|
4,1,5.8|
4,2,3.9|
4,3,0.19|
4,4,8.8|
4,5,8.7|
4,6,1.4|
4,7,4.9|
5,0,1.8|
5,1,0.87|
5,2,3.7|
5,3,3.7|
5,4,5|
5,5,5.8|
5,6,6.7|
5,7,1.5|
6,0,4.6|
6,1,5.7|
6,2,3.9|
6,3,2.1|
6,4,1.2|
6,5,6.1|
6,6,6|
6,7,2.5|
7,0,7.2|
7,1,0.52|
7,2,3|
7,3,7.5|
7,4,0.23|
7,5,9.7|
7,6,1.1|
7,7,9.8|
];
constraint_x14_x10=[
0,0,9|
0,1,0.032|
0,2,0.38|
0,3,1.2|
0,4,3.1|
0,5,3.7|
0,6,1.5|
0,7,6.1|
1,0,4.6|
1,1,5|
1,2,5.7|
1,3,8.8|
1,4,5|
1,5,7.3|
1,6,1.9|
1,7,2|
2,0,5.1|
2,1,5.4|
2,2,6.5|
2,3,8.8|
2,4,9.9|
2,5,1.7|
2,6,5|
2,7,1.1|
3,0,7.5|
3,1,8.5|
3,2,6.7|
3,3,4.1|
3,4,5.2|
3,5,2.8|
3,6,7.2|
3,7,8.5|
4,0,3.9|
4,1,9.5|
4,2,3.2|
4,3,6.4|
4,4,6.3|
4,5,5|
4,6,6.5|
4,7,6.6|
5,0,8.7|
5,1,1.4|
5,2,2.1|
5,3,6.2|
5,4,5.8|
5,5,6|
5,6,9.8|
5,7,3.2|
6,0,5.9|
6,1,0.42|
6,2,3.4|
6,3,9.6|
6,4,4.2|
6,5,8.2|
6,6,9.3|
6,7,6.6|
7,0,5.6|
7,1,1.9|
7,2,7.5|
7,3,1.5|
7,4,8.6|
7,5,6|
7,6,2|
7,7,1.4|
];
constraint_x15_x11=[
0,0,0.71|
0,1,9.9|
0,2,3|
0,3,1|
0,4,8.4|
0,5,6.9|
0,6,9.1|
0,7,6.5|
1,0,6.9|
1,1,2|
1,2,5.2|
1,3,1.6|
1,4,9.9|
1,5,6.8|
1,6,0.56|
1,7,5|
2,0,8.4|
2,1,0.8|
2,2,1.9|
2,3,6.9|
2,4,8.8|
2,5,3|
2,6,7.4|
2,7,3.1|
3,0,5.3|
3,1,2.8|
3,2,5.1|
3,3,0.51|
3,4,4.4|
3,5,6.5|
3,6,9.1|
3,7,1.3|
4,0,5.8|
4,1,1.8|
4,2,4.1|
4,3,0.063|
4,4,0.95|
4,5,8.2|
4,6,0.7|
4,7,6|
5,0,9|
5,1,6.8|
5,2,4.3|
5,3,2.9|
5,4,4.8|
5,5,3.1|
5,6,1.2|
5,7,2.3|
6,0,9.6|
6,1,7.6|
6,2,4|
6,3,5.8|
6,4,2.4|
6,5,8.8|
6,6,4.8|
6,7,3.9|
7,0,7.6|
7,1,1.9|
7,2,8.1|
7,3,3.7|
7,4,6.5|
7,5,5.1|
7,6,4.5|
7,7,2.4|
];
constraint_x16_x12=[
0,0,1.3|
0,1,5.4|
0,2,4.1|
0,3,5.4|
0,4,4.1|
0,5,9.4|
0,6,5.4|
0,7,8.7|
1,0,8.9|
1,1,4.4|
1,2,0.32|
1,3,1.7|
1,4,9.6|
1,5,0.068|
1,6,6|
1,7,5.1|
2,0,6.1|
2,1,1.7|
2,2,6.3|
2,3,2.2|
2,4,3.5|
2,5,9.8|
2,6,9.4|
2,7,0.045|
3,0,6.9|
3,1,1.5|
3,2,8.2|
3,3,4.8|
3,4,6.7|
3,5,6.4|
3,6,8.6|
3,7,1.9|
4,0,4.9|
4,1,8.4|
4,2,3.7|
4,3,8.7|
4,4,3.9|
4,5,0.67|
4,6,4.2|
4,7,8.9|
5,0,3|
5,1,6.7|
5,2,9.8|
5,3,6.3|
5,4,7.1|
5,5,1.6|
5,6,6.2|
5,7,7.1|
6,0,0.61|
6,1,3.5|
6,2,0.36|
6,3,2.5|
6,4,3.8|
6,5,2.4|
6,6,7.7|
6,7,0.82|
7,0,5.1|
7,1,3.5|
7,2,0.71|
7,3,3.1|
7,4,3.9|
7,5,6.5|
7,6,4.8|
7,7,4|
];
constraint_x17_x13=[
0,0,1.3|
0,1,1.9|
0,2,6.2|
0,3,5.9|
0,4,8.5|
0,5,0.59|
0,6,7.2|
0,7,3.8|
1,0,7.8|
1,1,0.94|
1,2,0.5|
1,3,6.6|
1,4,0.33|
1,5,6.6|
1,6,8.3|
1,7,5.4|
2,0,6.3|
2,1,2.2|
2,2,9.6|
2,3,4.7|
2,4,7.8|
2,5,3.7|
2,6,3.7|
2,7,5.4|
3,0,6.6|
3,1,4.7|
3,2,5.3|
3,3,5.4|
3,4,4.7|
3,5,5.1|
3,6,1.3|
3,7,0.24|
4,0,0.95|
4,1,3.7|
4,2,1.5|
4,3,2.4|
4,4,3.3|
4,5,1.2|
4,6,6.5|
4,7,3.9|
5,0,5.5|
5,1,1.5|
5,2,7.8|
5,3,8.1|
5,4,0.23|
5,5,8.1|
5,6,7.7|
5,7,3.8|
6,0,5.6|
6,1,5.8|
6,2,3.2|
6,3,0.46|
6,4,5.1|
6,5,8.1|
6,6,3.5|
6,7,7.9|
7,0,5.2|
7,1,0.98|
7,2,7.7|
7,3,8.6|
7,4,6.8|
7,5,2.8|
7,6,10|
7,7,5.3|
];
constraint_x18_x14=[
0,0,4.7|
0,1,8.4|
0,2,2.6|
0,3,7.6|
0,4,7.3|
0,5,0.17|
0,6,6.5|
0,7,3.7|
1,0,2.3|
1,1,8.1|
1,2,6.9|
1,3,3.5|
1,4,7.7|
1,5,7|
1,6,4.4|
1,7,8.1|
2,0,4.4|
2,1,7.4|
2,2,4.4|
2,3,3.4|
2,4,7.5|
2,5,6.6|
2,6,3.6|
2,7,3|
3,0,8.4|
3,1,3.9|
3,2,7|
3,3,2.5|
3,4,6.7|
3,5,1.7|
3,6,8|
3,7,1.3|
4,0,9.9|
4,1,5.9|
4,2,0.096|
4,3,3.2|
4,4,0.67|
4,5,4.7|
4,6,7|
4,7,9.2|
5,0,6.4|
5,1,0.78|
5,2,8.4|
5,3,4.5|
5,4,0.54|
5,5,1.4|
5,6,7.3|
5,7,5.4|
6,0,8.9|
6,1,4.8|
6,2,1.3|
6,3,9.7|
6,4,9|
6,5,5.7|
6,6,0.33|
6,7,2.3|
7,0,4.3|
7,1,2.5|
7,2,3.9|
7,3,4.6|
7,4,7|
7,5,0.89|
7,6,1.7|
7,7,6.7|
];
constraint_x1_y1=[
0,0,3.8|
0,1,2.2|
0,2,5.1|
0,3,7.1|
0,4,9.9|
0,5,4.2|
0,6,8|
0,7,4.9|
1,0,8.1|
1,1,5.5|
1,2,10|
1,3,8.7|
1,4,8.7|
1,5,6.8|
1,6,6.8|
1,7,4.7|
2,0,4.7|
2,1,5.8|
2,2,9.4|
2,3,2.9|
2,4,3.9|
2,5,4.2|
2,6,7.6|
2,7,1.7|
3,0,7|
3,1,3.2|
3,2,5|
3,3,5.4|
3,4,9.5|
3,5,5.5|
3,6,9.1|
3,7,9.6|
4,0,8.7|
4,1,0.95|
4,2,8.9|
4,3,4.2|
4,4,0.22|
4,5,9.3|
4,6,3.3|
4,7,9.9|
5,0,5.5|
5,1,2.7|
5,2,8.6|
5,3,3.7|
5,4,0.43|
5,5,6.5|
5,6,8.9|
5,7,9.9|
6,0,2.7|
6,1,0.94|
6,2,2.8|
6,3,9.4|
6,4,1.2|
6,5,3.4|
6,6,7.1|
6,7,4.5|
7,0,0.049|
7,1,2.3|
7,2,0.55|
7,3,0.019|
7,4,3.8|
7,5,3.3|
7,6,3.4|
7,7,2.7|
];
constraint_x2_y2=[
0,0,6.4|
0,1,4.3|
0,2,5.2|
0,3,0.52|
0,4,2.1|
0,5,4.8|
0,6,7|
0,7,2.1|
1,0,7.5|
1,1,2.1|
1,2,4.7|
1,3,2.7|
1,4,0.91|
1,5,5.8|
1,6,9.8|
1,7,7.3|
2,0,3.9|
2,1,2.7|
2,2,3.3|
2,3,3.5|
2,4,9.4|
2,5,3.7|
2,6,5.2|
2,7,4.5|
3,0,9.6|
3,1,8|
3,2,9.3|
3,3,3.8|
3,4,1.2|
3,5,1.9|
3,6,7.4|
3,7,8.4|
4,0,0.18|
4,1,7.2|
4,2,3.8|
4,3,8|
4,4,5.8|
4,5,6.4|
4,6,3.5|
4,7,7|
5,0,1.6|
5,1,9.6|
5,2,1.4|
5,3,3.4|
5,4,1.6|
5,5,3|
5,6,1.9|
5,7,0.59|
6,0,6|
6,1,1.5|
6,2,0.24|
6,3,3.2|
6,4,9.5|
6,5,8.6|
6,6,6.3|
6,7,1.2|
7,0,5.8|
7,1,9.3|
7,2,4.9|
7,3,3.6|
7,4,4.8|
7,5,8.6|
7,6,3|
7,7,3.4|
];
constraint_x3_y3=[
0,0,7.5|
0,1,1.1|
0,2,6.3|
0,3,7.3|
0,4,9.4|
0,5,6.3|
0,6,9.5|
0,7,8|
1,0,8.7|
1,1,2.2|
1,2,7.8|
1,3,6.5|
1,4,7.2|
1,5,4.5|
1,6,9.1|
1,7,3.1|
2,0,6.2|
2,1,0.43|
2,2,0.76|
2,3,0.24|
2,4,9|
2,5,5.9|
2,6,7.4|
2,7,7.3|
3,0,3|
3,1,3.6|
3,2,3|
3,3,2.2|
3,4,2.9|
3,5,9.4|
3,6,10|
3,7,2.1|
4,0,0.41|
4,1,5.9|
4,2,6.9|
4,3,8.9|
4,4,0.61|
4,5,8.2|
4,6,2.5|
4,7,4.2|
5,0,1.3|
5,1,2|
5,2,6.2|
5,3,8.7|
5,4,1.5|
5,5,6.1|
5,6,6|
5,7,7.4|
6,0,2.7|
6,1,5.7|
6,2,9.7|
6,3,2.3|
6,4,8.4|
6,5,2.3|
6,6,0.41|
6,7,6.9|
7,0,8.7|
7,1,5|
7,2,7.6|
7,3,3.3|
7,4,1.6|
7,5,6.3|
7,6,8.7|
7,7,3.9|
];
constraint_x4_y4=[
0,0,5.7|
0,1,9|
0,2,3.9|
0,3,1.4|
0,4,8.5|
0,5,6.2|
0,6,8.1|
0,7,7.9|
1,0,9.2|
1,1,4.9|
1,2,6.5|
1,3,6.2|
1,4,2|
1,5,9.8|
1,6,4.7|
1,7,9|
2,0,5.3|
2,1,1.8|
2,2,2.4|
2,3,8.7|
2,4,9.7|
2,5,9.3|
2,6,5.7|
2,7,9.8|
3,0,6|
3,1,1.1|
3,2,1.6|
3,3,4.6|
3,4,9.5|
3,5,7.6|
3,6,1.1|
3,7,9|
4,0,5.1|
4,1,5.4|
4,2,5.7|
4,3,8.2|
4,4,4.7|
4,5,2.8|
4,6,4.5|
4,7,0.088|
5,0,2.1|
5,1,8.8|
5,2,3|
5,3,6.3|
5,4,0.34|
5,5,7.8|
5,6,0.29|
5,7,1.1|
6,0,3.8|
6,1,8.7|
6,2,0.19|
6,3,7.9|
6,4,3.1|
6,5,3.8|
6,6,9.8|
6,7,2.9|
7,0,7.6|
7,1,1.8|
7,2,3.9|
7,3,4.1|
7,4,1.2|
7,5,2.5|
7,6,6.8|
7,7,7.2|
];
constraint_x5_y5=[
0,0,5.4|
0,1,9.4|
0,2,8.1|
0,3,8.2|
0,4,2.7|
0,5,1.6|
0,6,1.5|
0,7,9.7|
1,0,4.5|
1,1,5.5|
1,2,7|
1,3,7.7|
1,4,8.7|
1,5,3.4|
1,6,7.7|
1,7,9.2|
2,0,8.6|
2,1,4.8|
2,2,8.5|
2,3,8.1|
2,4,1.8|
2,5,2.1|
2,6,2.9|
2,7,6|
3,0,1.7|
3,1,9.9|
3,2,2.9|
3,3,3.6|
3,4,6.9|
3,5,2.9|
3,6,1.6|
3,7,7.3|
4,0,9|
4,1,1.8|
4,2,3.5|
4,3,8.6|
4,4,5.6|
4,5,7.1|
4,6,7.1|
4,7,6|
5,0,9.3|
5,1,2.8|
5,2,8.2|
5,3,3.2|
5,4,0.33|
5,5,4.4|
5,6,5.8|
5,7,6.6|
6,0,2.2|
6,1,5.6|
6,2,3.6|
6,3,0.15|
6,4,4.4|
6,5,1.7|
6,6,7.8|
6,7,9|
7,0,5.3|
7,1,8.3|
7,2,3|
7,3,1.7|
7,4,2.7|
7,5,6.7|
7,6,3.7|
7,7,8.8|
];
constraint_x6_y6=[
0,0,7.4|
0,1,2.3|
0,2,9.8|
0,3,1.5|
0,4,7.3|
0,5,4.6|
0,6,8|
0,7,6.7|
1,0,4.8|
1,1,3.7|
1,2,1.5|
1,3,3.2|
1,4,0.93|
1,5,0.17|
1,6,5.5|
1,7,8.8|
2,0,2|
2,1,5.8|
2,2,6.3|
2,3,1.8|
2,4,6.6|
2,5,6.4|
2,6,0.89|
2,7,7.2|
3,0,1.9|
3,1,4.9|
3,2,2.7|
3,3,8.4|
3,4,9.4|
3,5,6.7|
3,6,6.5|
3,7,0.97|
4,0,6.7|
4,1,5|
4,2,9.6|
4,3,1.4|
4,4,3.1|
4,5,9.9|
4,6,1.5|
4,7,6.4|
5,0,3.2|
5,1,5|
5,2,10|
5,3,8.8|
5,4,1.5|
5,5,8.5|
5,6,8.5|
5,7,3.6|
6,0,7.3|
6,1,2.4|
6,2,9.8|
6,3,2.5|
6,4,1.8|
6,5,3.9|
6,6,0.49|
6,7,4.7|
7,0,9.7|
7,1,1.5|
7,2,0.23|
7,3,0.2|
7,4,9.6|
7,5,7.5|
7,6,3.1|
7,7,9.6|
];
constraint_x7_y7=[
0,0,1.7|
0,1,2|
0,2,4.3|
0,3,6.4|
0,4,7.6|
0,5,2.3|
0,6,3.1|
0,7,8|
1,0,6.6|
1,1,3.6|
1,2,3.1|
1,3,3.6|
1,4,4.7|
1,5,5.6|
1,6,7.5|
1,7,2.8|
2,0,3.3|
2,1,2.9|
2,2,5.5|
2,3,6.4|
2,4,4.4|
2,5,8.3|
2,6,4.9|
2,7,9.1|
3,0,0.013|
3,1,3.9|
3,2,1.8|
3,3,2.2|
3,4,4.7|
3,5,7.4|
3,6,4.3|
3,7,5.7|
4,0,7.4|
4,1,8.4|
4,2,8.4|
4,3,7.6|
4,4,6.4|
4,5,0.99|
4,6,9.3|
4,7,4.5|
5,0,4.8|
5,1,7.8|
5,2,2|
5,3,0.65|
5,4,6.7|
5,5,6.9|
5,6,7.6|
5,7,1.5|
6,0,5.4|
6,1,4.2|
6,2,5.6|
6,3,3.8|
6,4,5.6|
6,5,7.8|
6,6,9.1|
6,7,0.19|
7,0,9.4|
7,1,3.8|
7,2,9.4|
7,3,5.3|
7,4,7.1|
7,5,5.4|
7,6,3.4|
7,7,9|
];
constraint_x8_y8=[
0,0,1.5|
0,1,0.92|
0,2,7.7|
0,3,3.8|
0,4,8.8|
0,5,1.6|
0,6,4.4|
0,7,1.1|
1,0,1.5|
1,1,6.5|
1,2,8.3|
1,3,3.5|
1,4,7|
1,5,1.9|
1,6,3.6|
1,7,8.4|
2,0,5.6|
2,1,7.7|
2,2,1.5|
2,3,6.7|
2,4,4.1|
2,5,3.6|
2,6,1.4|
2,7,9.3|
3,0,1.3|
3,1,6.7|
3,2,3.5|
3,3,5.1|
3,4,3.8|
3,5,8.1|
3,6,8.2|
3,7,2.4|
4,0,5.7|
4,1,6.8|
4,2,6.3|
4,3,2.2|
4,4,9.8|
4,5,1.4|
4,6,4.3|
4,7,3.5|
5,0,5.5|
5,1,3.4|
5,2,6.1|
5,3,9.4|
5,4,3.2|
5,5,1.1|
5,6,3.9|
5,7,3.8|
6,0,0.7|
6,1,0.92|
6,2,7.1|
6,3,1.4|
6,4,2.2|
6,5,1|
6,6,9.8|
6,7,6.7|
7,0,3.5|
7,1,0.28|
7,2,4.9|
7,3,5.6|
7,4,7.8|
7,5,9|
7,6,3.9|
7,7,8.6|
];
initial_distribution_y1=[0.03,0.015,0.19,0.082,0.068,0.25,0.3,0.072];
initial_distribution_y2=[0.13,0.22,0.29,0.07,0.11,0.025,0.12,0.04];
initial_distribution_y3=[0.12,0.092,0.0063,0.12,0.15,0.084,0.22,0.2];
initial_distribution_y4=[0.1,0.094,0.14,0.14,0.19,0.11,0.023,0.21];
initial_distribution_y5=[0.17,0.14,0.026,0.031,0.11,0.2,0.21,0.11];
initial_distribution_y6=[0.13,0.14,0.16,0.14,0.15,0.05,0.17,0.067];
initial_distribution_y7=[0.17,0.21,0.12,0.19,0.061,0.0049,0.085,0.16];
initial_distribution_y8=[0.19,0.091,0.17,0.077,0.14,0.086,0.18,0.069];
transition_y1=[
0.19,0.037,0.094,0.086,0.089,0.19,0.11,0.2|
0.15,0.16,0.082,0.1,0.16,0.1,0.062,0.19|
0.14,0.16,0.052,0.078,0.033,0.27,0.21,0.047|
0.05,0.01,0.17,0.031,0.16,0.19,0.21,0.18|
0.24,0.097,0.1,0.18,0.065,0.028,0.23,0.067|
0.032,0.012,0.044,0.28,0.18,0.13,0.19,0.14|
0.19,0.15,0.14,0.058,0.091,0.16,0.055,0.17|
0.17,0.13,0.1,0.16,0.15,0.1,0.13,0.059|
];
transition_y2=[
0.14,0.15,0.14,0.22,0.064,0.12,0.17,0.0074|
0.24,0.081,0.28,0.079,0.0093,0.11,0.046,0.16|
0.27,0.14,0.041,0.3,0.042,0.14,0.052,0.023|
0.042,0.15,0.14,0.079,0.22,0.19,0.13,0.041|
0.0062,0.063,0.09,0.14,0.18,0.21,0.16,0.16|
0.13,0.18,0.0038,0.14,0.24,0.2,0.09,0.018|
0.034,0.067,0.17,0.12,0.26,0.051,0.27,0.014|
0.12,0.17,0.16,0.19,0.1,0.15,0.015,0.1|
];
transition_y3=[
0.13,0.13,0.19,0.22,0.044,0.13,0.14,0.021|
0.12,0.2,0.093,0.026,0.019,0.17,0.18,0.19|
0.15,0.13,0.029,0.015,0.21,0.15,0.13,0.18|
0.24,0.049,0.19,0.18,0.086,0.054,0.079,0.13|
0.18,0.19,0.2,0.048,0.024,0.13,0.23,0.0043|
0.049,0.12,0.27,0.057,0.098,0.19,0.14,0.079|
0.15,0.15,0.086,0.074,0.1,0.15,0.14,0.16|
0.02,0.16,0.26,0.15,0.016,0.14,0.21,0.05|
];
transition_y4=[
0.047,0.22,0.22,0.16,0.026,0.23,0.088,0.0066|
0.035,0.16,0.13,0.15,0.21,0.17,0.12,0.029|
0.033,0.031,0.14,0.18,0.24,0.14,0.23,0.0026|
0.18,0.16,0.05,0.078,0.17,0.05,0.18,0.13|
0.035,0.16,0.22,0.12,0.18,0.093,0.13,0.058|
0.027,0.21,0.044,0.26,0.13,0.13,0.15,0.05|
0.16,0.036,0.049,0.19,0.17,0.062,0.19,0.14|
0.15,0.045,0.1,0.14,0.2,0.22,0.05,0.085|
];
transition_y5=[
0.032,0.18,0.25,0.044,0.031,0.092,0.2,0.17|
0.032,0.15,0.07,0.26,0.15,0.073,0.078,0.19|
0.15,0.23,0.12,0.062,0.12,0.18,0.027,0.11|
0.1,0.006,0.13,0.14,0.11,0.17,0.11,0.23|
0.19,0.079,0.27,0.14,0.093,0.13,0.037,0.07|
0.047,0.2,0.087,0.011,0.2,0.2,0.14,0.12|
0.16,0.0051,0.092,0.045,0.26,0.15,0.036,0.25|
0.18,0.14,0.16,0.066,0.072,0.1,0.075,0.19|
];
transition_y6=[
0.16,0.1,0.12,0.038,0.21,0.12,0.046,0.2|
0.21,0.1,0.012,0.21,0.057,0.15,0.039,0.22|
0.098,0.11,0.23,0.11,0.19,0.088,0.14,0.033|
0.15,0.097,0.082,0.17,0.11,0.094,0.18,0.11|
0.15,0.11,0.16,0.18,0.14,0.045,0.2,0.021|
0.13,0.031,0.2,0.063,0.0095,0.25,0.27,0.055|
0.0074,0.07,0.22,0.14,0.15,0.23,0.052,0.13|
0.031,0.18,0.064,0.16,0.088,0.14,0.19,0.16|
];
transition_y7=[
0.087,0.17,0.075,0.12,0.18,0.15,0.19,0.035|
0.094,0.1,0.25,0.18,0.21,0.0092,0.049,0.098|
0.18,0.15,0.15,0.15,0.097,0.12,0.1,0.036|
0.046,0.25,0.057,0.068,0.26,0.084,0.11,0.12|
0.05,0.2,0.11,0.19,0.059,0.18,0.12,0.096|
0.087,0.071,0.097,0.043,0.17,0.21,0.15,0.18|
0.15,0.16,0.037,0.18,0.064,0.15,0.091,0.17|
0.098,0.16,0.17,0.16,0.091,0.042,0.14,0.14|
];
transition_y8=[
0.1,0.15,0.095,0.085,0.031,0.13,0.15,0.25|
0.14,0.2,0.19,0.094,0.081,0.018,0.18,0.097|
0.18,0.12,0.036,0.19,0.13,0.18,0.12,0.051|
0.1,0.0038,0.081,0.16,0.0088,0.12,0.27,0.26|
0.1,0.17,0.16,0.036,0.099,0.11,0.16,0.17|
0.22,0.12,0.14,0.12,0.21,0.072,0.095,0.025|
0.2,0.16,0.2,0.1,0.022,0.13,0.019,0.16|
0.03,0.12,0.062,0.21,0.15,0.061,0.14,0.22|
];
